(set-logic QF_LRA)
(declare-fun T1 () Real )
(declare-fun T2 () Real )
(declare-fun T3 () Real )
(declare-fun T4 () Real )
(declare-fun T5 () Real )
(declare-fun T6 () Real )
(declare-fun T7 () Real )
(declare-fun T8 () Real )
(declare-fun Z () Real )
(assert ( and 
(or ( <= ( + T1 79 ) T2 ) ( <= ( + T2 76 ) T1 ) )
(or ( <= ( + T1 92 )  ( + T2 76 ) ) ( <= ( + T2 165 )( + T1 79 ) ) )
(or ( <= ( + T1 101 )  ( + T2 165 ) ) ( <= ( + T2 255 )( + T1 92 ) ) )
(or ( <= ( + T1 175 )  ( + T2 255 ) ) ( <= ( + T2 355 )( + T1 101 ) ) )
(or ( <= ( + T1 177 )  ( + T2 355 ) ) ( <= ( + T2 401 )( + T1 175 ) ) )
(or ( <= ( + T1 230 )  ( + T2 401 ) ) ( <= ( + T2 464 )( + T1 177 ) ) )
(or ( <= ( + T1 79 ) T3 ) ( <= ( + T3 3 ) T1 ) )
(or ( <= ( + T1 92 )  ( + T3 3 ) ) ( <= ( + T3 15 )( + T1 79 ) ) )
(or ( <= ( + T1 101 )  ( + T3 15 ) ) ( <= ( + T3 53 )( + T1 92 ) ) )
(or ( <= ( + T1 175 )  ( + T3 53 ) ) ( <= ( + T3 83 )( + T1 101 ) ) )
(or ( <= ( + T1 177 )  ( + T3 83 ) ) ( <= ( + T3 140 )( + T1 175 ) ) )
(or ( <= ( + T1 230 )  ( + T3 140 ) ) ( <= ( + T3 207 )( + T1 177 ) ) )
(or ( <= ( + T1 79 ) T4 ) ( <= ( + T4 66 ) T1 ) )
(or ( <= ( + T1 92 )  ( + T4 66 ) ) ( <= ( + T4 100 )( + T1 79 ) ) )
(or ( <= ( + T1 101 )  ( + T4 100 ) ) ( <= ( + T4 105 )( + T1 92 ) ) )
(or ( <= ( + T1 175 )  ( + T4 105 ) ) ( <= ( + T4 174 )( + T1 101 ) ) )
(or ( <= ( + T1 177 )  ( + T4 174 ) ) ( <= ( + T4 181 )( + T1 175 ) ) )
(or ( <= ( + T1 230 )  ( + T4 181 ) ) ( <= ( + T4 252 )( + T1 177 ) ) )
(or ( <= ( + T1 79 ) T5 ) ( <= ( + T5 4 ) T1 ) )
(or ( <= ( + T1 92 )  ( + T5 4 ) ) ( <= ( + T5 39 )( + T1 79 ) ) )
(or ( <= ( + T1 101 )  ( + T5 39 ) ) ( <= ( + T5 133 )( + T1 92 ) ) )
(or ( <= ( + T1 175 )  ( + T5 133 ) ) ( <= ( + T5 174 )( + T1 101 ) ) )
(or ( <= ( + T1 177 )  ( + T5 174 ) ) ( <= ( + T5 206 )( + T1 175 ) ) )
(or ( <= ( + T1 230 )  ( + T5 206 ) ) ( <= ( + T5 266 )( + T1 177 ) ) )
(or ( <= ( + T1 79 ) T6 ) ( <= ( + T6 74 ) T1 ) )
(or ( <= ( + T1 92 )  ( + T6 74 ) ) ( <= ( + T6 137 )( + T1 79 ) ) )
(or ( <= ( + T1 101 )  ( + T6 137 ) ) ( <= ( + T6 209 )( + T1 92 ) ) )
(or ( <= ( + T1 175 )  ( + T6 209 ) ) ( <= ( + T6 291 )( + T1 101 ) ) )
(or ( <= ( + T1 177 )  ( + T6 291 ) ) ( <= ( + T6 327 )( + T1 175 ) ) )
(or ( <= ( + T1 230 )  ( + T6 327 ) ) ( <= ( + T6 353 )( + T1 177 ) ) )
(or ( <= ( + T1 79 ) T7 ) ( <= ( + T7 86 ) T1 ) )
(or ( <= ( + T1 92 )  ( + T7 86 ) ) ( <= ( + T7 97 )( + T1 79 ) ) )
(or ( <= ( + T1 101 )  ( + T7 97 ) ) ( <= ( + T7 163 )( + T1 92 ) ) )
(or ( <= ( + T1 175 )  ( + T7 163 ) ) ( <= ( + T7 190 )( + T1 101 ) ) )
(or ( <= ( + T1 177 )  ( + T7 190 ) ) ( <= ( + T7 252 )( + T1 175 ) ) )
(or ( <= ( + T1 230 )  ( + T7 252 ) ) ( <= ( + T7 315 )( + T1 177 ) ) )
(or ( <= ( + T1 79 ) T8 ) ( <= ( + T8 90 ) T1 ) )
(or ( <= ( + T1 92 )  ( + T8 90 ) ) ( <= ( + T8 154 )( + T1 79 ) ) )
(or ( <= ( + T1 101 )  ( + T8 154 ) ) ( <= ( + T8 229 )( + T1 92 ) ) )
(or ( <= ( + T1 175 )  ( + T8 229 ) ) ( <= ( + T8 256 )( + T1 101 ) ) )
(or ( <= ( + T1 177 )  ( + T8 256 ) ) ( <= ( + T8 301 )( + T1 175 ) ) )
(or ( <= ( + T1 230 )  ( + T8 301 ) ) ( <= ( + T8 332 )( + T1 177 ) ) )
(or ( <= ( + T2 76 ) T3 ) ( <= ( + T3 3 ) T2 ) )
(or ( <= ( + T2 165 )  ( + T3 3 ) ) ( <= ( + T3 15 )( + T2 76 ) ) )
(or ( <= ( + T2 255 )  ( + T3 15 ) ) ( <= ( + T3 53 )( + T2 165 ) ) )
(or ( <= ( + T2 355 )  ( + T3 53 ) ) ( <= ( + T3 83 )( + T2 255 ) ) )
(or ( <= ( + T2 401 )  ( + T3 83 ) ) ( <= ( + T3 140 )( + T2 355 ) ) )
(or ( <= ( + T2 464 )  ( + T3 140 ) ) ( <= ( + T3 207 )( + T2 401 ) ) )
(or ( <= ( + T2 76 ) T4 ) ( <= ( + T4 66 ) T2 ) )
(or ( <= ( + T2 165 )  ( + T4 66 ) ) ( <= ( + T4 100 )( + T2 76 ) ) )
(or ( <= ( + T2 255 )  ( + T4 100 ) ) ( <= ( + T4 105 )( + T2 165 ) ) )
(or ( <= ( + T2 355 )  ( + T4 105 ) ) ( <= ( + T4 174 )( + T2 255 ) ) )
(or ( <= ( + T2 401 )  ( + T4 174 ) ) ( <= ( + T4 181 )( + T2 355 ) ) )
(or ( <= ( + T2 464 )  ( + T4 181 ) ) ( <= ( + T4 252 )( + T2 401 ) ) )
(or ( <= ( + T2 76 ) T5 ) ( <= ( + T5 4 ) T2 ) )
(or ( <= ( + T2 165 )  ( + T5 4 ) ) ( <= ( + T5 39 )( + T2 76 ) ) )
(or ( <= ( + T2 255 )  ( + T5 39 ) ) ( <= ( + T5 133 )( + T2 165 ) ) )
(or ( <= ( + T2 355 )  ( + T5 133 ) ) ( <= ( + T5 174 )( + T2 255 ) ) )
(or ( <= ( + T2 401 )  ( + T5 174 ) ) ( <= ( + T5 206 )( + T2 355 ) ) )
(or ( <= ( + T2 464 )  ( + T5 206 ) ) ( <= ( + T5 266 )( + T2 401 ) ) )
(or ( <= ( + T2 76 ) T6 ) ( <= ( + T6 74 ) T2 ) )
(or ( <= ( + T2 165 )  ( + T6 74 ) ) ( <= ( + T6 137 )( + T2 76 ) ) )
(or ( <= ( + T2 255 )  ( + T6 137 ) ) ( <= ( + T6 209 )( + T2 165 ) ) )
(or ( <= ( + T2 355 )  ( + T6 209 ) ) ( <= ( + T6 291 )( + T2 255 ) ) )
(or ( <= ( + T2 401 )  ( + T6 291 ) ) ( <= ( + T6 327 )( + T2 355 ) ) )
(or ( <= ( + T2 464 )  ( + T6 327 ) ) ( <= ( + T6 353 )( + T2 401 ) ) )
(or ( <= ( + T2 76 ) T7 ) ( <= ( + T7 86 ) T2 ) )
(or ( <= ( + T2 165 )  ( + T7 86 ) ) ( <= ( + T7 97 )( + T2 76 ) ) )
(or ( <= ( + T2 255 )  ( + T7 97 ) ) ( <= ( + T7 163 )( + T2 165 ) ) )
(or ( <= ( + T2 355 )  ( + T7 163 ) ) ( <= ( + T7 190 )( + T2 255 ) ) )
(or ( <= ( + T2 401 )  ( + T7 190 ) ) ( <= ( + T7 252 )( + T2 355 ) ) )
(or ( <= ( + T2 464 )  ( + T7 252 ) ) ( <= ( + T7 315 )( + T2 401 ) ) )
(or ( <= ( + T2 76 ) T8 ) ( <= ( + T8 90 ) T2 ) )
(or ( <= ( + T2 165 )  ( + T8 90 ) ) ( <= ( + T8 154 )( + T2 76 ) ) )
(or ( <= ( + T2 255 )  ( + T8 154 ) ) ( <= ( + T8 229 )( + T2 165 ) ) )
(or ( <= ( + T2 355 )  ( + T8 229 ) ) ( <= ( + T8 256 )( + T2 255 ) ) )
(or ( <= ( + T2 401 )  ( + T8 256 ) ) ( <= ( + T8 301 )( + T2 355 ) ) )
(or ( <= ( + T2 464 )  ( + T8 301 ) ) ( <= ( + T8 332 )( + T2 401 ) ) )
(or ( <= ( + T3 3 ) T4 ) ( <= ( + T4 66 ) T3 ) )
(or ( <= ( + T3 15 )  ( + T4 66 ) ) ( <= ( + T4 100 )( + T3 3 ) ) )
(or ( <= ( + T3 53 )  ( + T4 100 ) ) ( <= ( + T4 105 )( + T3 15 ) ) )
(or ( <= ( + T3 83 )  ( + T4 105 ) ) ( <= ( + T4 174 )( + T3 53 ) ) )
(or ( <= ( + T3 140 )  ( + T4 174 ) ) ( <= ( + T4 181 )( + T3 83 ) ) )
(or ( <= ( + T3 207 )  ( + T4 181 ) ) ( <= ( + T4 252 )( + T3 140 ) ) )
(or ( <= ( + T3 3 ) T5 ) ( <= ( + T5 4 ) T3 ) )
(or ( <= ( + T3 15 )  ( + T5 4 ) ) ( <= ( + T5 39 )( + T3 3 ) ) )
(or ( <= ( + T3 53 )  ( + T5 39 ) ) ( <= ( + T5 133 )( + T3 15 ) ) )
(or ( <= ( + T3 83 )  ( + T5 133 ) ) ( <= ( + T5 174 )( + T3 53 ) ) )
(or ( <= ( + T3 140 )  ( + T5 174 ) ) ( <= ( + T5 206 )( + T3 83 ) ) )
(or ( <= ( + T3 207 )  ( + T5 206 ) ) ( <= ( + T5 266 )( + T3 140 ) ) )
(or ( <= ( + T3 3 ) T6 ) ( <= ( + T6 74 ) T3 ) )
(or ( <= ( + T3 15 )  ( + T6 74 ) ) ( <= ( + T6 137 )( + T3 3 ) ) )
(or ( <= ( + T3 53 )  ( + T6 137 ) ) ( <= ( + T6 209 )( + T3 15 ) ) )
(or ( <= ( + T3 83 )  ( + T6 209 ) ) ( <= ( + T6 291 )( + T3 53 ) ) )
(or ( <= ( + T3 140 )  ( + T6 291 ) ) ( <= ( + T6 327 )( + T3 83 ) ) )
(or ( <= ( + T3 207 )  ( + T6 327 ) ) ( <= ( + T6 353 )( + T3 140 ) ) )
(or ( <= ( + T3 3 ) T7 ) ( <= ( + T7 86 ) T3 ) )
(or ( <= ( + T3 15 )  ( + T7 86 ) ) ( <= ( + T7 97 )( + T3 3 ) ) )
(or ( <= ( + T3 53 )  ( + T7 97 ) ) ( <= ( + T7 163 )( + T3 15 ) ) )
(or ( <= ( + T3 83 )  ( + T7 163 ) ) ( <= ( + T7 190 )( + T3 53 ) ) )
(or ( <= ( + T3 140 )  ( + T7 190 ) ) ( <= ( + T7 252 )( + T3 83 ) ) )
(or ( <= ( + T3 207 )  ( + T7 252 ) ) ( <= ( + T7 315 )( + T3 140 ) ) )
(or ( <= ( + T3 3 ) T8 ) ( <= ( + T8 90 ) T3 ) )
(or ( <= ( + T3 15 )  ( + T8 90 ) ) ( <= ( + T8 154 )( + T3 3 ) ) )
(or ( <= ( + T3 53 )  ( + T8 154 ) ) ( <= ( + T8 229 )( + T3 15 ) ) )
(or ( <= ( + T3 83 )  ( + T8 229 ) ) ( <= ( + T8 256 )( + T3 53 ) ) )
(or ( <= ( + T3 140 )  ( + T8 256 ) ) ( <= ( + T8 301 )( + T3 83 ) ) )
(or ( <= ( + T3 207 )  ( + T8 301 ) ) ( <= ( + T8 332 )( + T3 140 ) ) )
(or ( <= ( + T4 66 ) T5 ) ( <= ( + T5 4 ) T4 ) )
(or ( <= ( + T4 100 )  ( + T5 4 ) ) ( <= ( + T5 39 )( + T4 66 ) ) )
(or ( <= ( + T4 105 )  ( + T5 39 ) ) ( <= ( + T5 133 )( + T4 100 ) ) )
(or ( <= ( + T4 174 )  ( + T5 133 ) ) ( <= ( + T5 174 )( + T4 105 ) ) )
(or ( <= ( + T4 181 )  ( + T5 174 ) ) ( <= ( + T5 206 )( + T4 174 ) ) )
(or ( <= ( + T4 252 )  ( + T5 206 ) ) ( <= ( + T5 266 )( + T4 181 ) ) )
(or ( <= ( + T4 66 ) T6 ) ( <= ( + T6 74 ) T4 ) )
(or ( <= ( + T4 100 )  ( + T6 74 ) ) ( <= ( + T6 137 )( + T4 66 ) ) )
(or ( <= ( + T4 105 )  ( + T6 137 ) ) ( <= ( + T6 209 )( + T4 100 ) ) )
(or ( <= ( + T4 174 )  ( + T6 209 ) ) ( <= ( + T6 291 )( + T4 105 ) ) )
(or ( <= ( + T4 181 )  ( + T6 291 ) ) ( <= ( + T6 327 )( + T4 174 ) ) )
(or ( <= ( + T4 252 )  ( + T6 327 ) ) ( <= ( + T6 353 )( + T4 181 ) ) )
(or ( <= ( + T4 66 ) T7 ) ( <= ( + T7 86 ) T4 ) )
(or ( <= ( + T4 100 )  ( + T7 86 ) ) ( <= ( + T7 97 )( + T4 66 ) ) )
(or ( <= ( + T4 105 )  ( + T7 97 ) ) ( <= ( + T7 163 )( + T4 100 ) ) )
(or ( <= ( + T4 174 )  ( + T7 163 ) ) ( <= ( + T7 190 )( + T4 105 ) ) )
(or ( <= ( + T4 181 )  ( + T7 190 ) ) ( <= ( + T7 252 )( + T4 174 ) ) )
(or ( <= ( + T4 252 )  ( + T7 252 ) ) ( <= ( + T7 315 )( + T4 181 ) ) )
(or ( <= ( + T4 66 ) T8 ) ( <= ( + T8 90 ) T4 ) )
(or ( <= ( + T4 100 )  ( + T8 90 ) ) ( <= ( + T8 154 )( + T4 66 ) ) )
(or ( <= ( + T4 105 )  ( + T8 154 ) ) ( <= ( + T8 229 )( + T4 100 ) ) )
(or ( <= ( + T4 174 )  ( + T8 229 ) ) ( <= ( + T8 256 )( + T4 105 ) ) )
(or ( <= ( + T4 181 )  ( + T8 256 ) ) ( <= ( + T8 301 )( + T4 174 ) ) )
(or ( <= ( + T4 252 )  ( + T8 301 ) ) ( <= ( + T8 332 )( + T4 181 ) ) )
(or ( <= ( + T5 4 ) T6 ) ( <= ( + T6 74 ) T5 ) )
(or ( <= ( + T5 39 )  ( + T6 74 ) ) ( <= ( + T6 137 )( + T5 4 ) ) )
(or ( <= ( + T5 133 )  ( + T6 137 ) ) ( <= ( + T6 209 )( + T5 39 ) ) )
(or ( <= ( + T5 174 )  ( + T6 209 ) ) ( <= ( + T6 291 )( + T5 133 ) ) )
(or ( <= ( + T5 206 )  ( + T6 291 ) ) ( <= ( + T6 327 )( + T5 174 ) ) )
(or ( <= ( + T5 266 )  ( + T6 327 ) ) ( <= ( + T6 353 )( + T5 206 ) ) )
(or ( <= ( + T5 4 ) T7 ) ( <= ( + T7 86 ) T5 ) )
(or ( <= ( + T5 39 )  ( + T7 86 ) ) ( <= ( + T7 97 )( + T5 4 ) ) )
(or ( <= ( + T5 133 )  ( + T7 97 ) ) ( <= ( + T7 163 )( + T5 39 ) ) )
(or ( <= ( + T5 174 )  ( + T7 163 ) ) ( <= ( + T7 190 )( + T5 133 ) ) )
(or ( <= ( + T5 206 )  ( + T7 190 ) ) ( <= ( + T7 252 )( + T5 174 ) ) )
(or ( <= ( + T5 266 )  ( + T7 252 ) ) ( <= ( + T7 315 )( + T5 206 ) ) )
(or ( <= ( + T5 4 ) T8 ) ( <= ( + T8 90 ) T5 ) )
(or ( <= ( + T5 39 )  ( + T8 90 ) ) ( <= ( + T8 154 )( + T5 4 ) ) )
(or ( <= ( + T5 133 )  ( + T8 154 ) ) ( <= ( + T8 229 )( + T5 39 ) ) )
(or ( <= ( + T5 174 )  ( + T8 229 ) ) ( <= ( + T8 256 )( + T5 133 ) ) )
(or ( <= ( + T5 206 )  ( + T8 256 ) ) ( <= ( + T8 301 )( + T5 174 ) ) )
(or ( <= ( + T5 266 )  ( + T8 301 ) ) ( <= ( + T8 332 )( + T5 206 ) ) )
(or ( <= ( + T6 74 ) T7 ) ( <= ( + T7 86 ) T6 ) )
(or ( <= ( + T6 137 )  ( + T7 86 ) ) ( <= ( + T7 97 )( + T6 74 ) ) )
(or ( <= ( + T6 209 )  ( + T7 97 ) ) ( <= ( + T7 163 )( + T6 137 ) ) )
(or ( <= ( + T6 291 )  ( + T7 163 ) ) ( <= ( + T7 190 )( + T6 209 ) ) )
(or ( <= ( + T6 327 )  ( + T7 190 ) ) ( <= ( + T7 252 )( + T6 291 ) ) )
(or ( <= ( + T6 353 )  ( + T7 252 ) ) ( <= ( + T7 315 )( + T6 327 ) ) )
(or ( <= ( + T6 74 ) T8 ) ( <= ( + T8 90 ) T6 ) )
(or ( <= ( + T6 137 )  ( + T8 90 ) ) ( <= ( + T8 154 )( + T6 74 ) ) )
(or ( <= ( + T6 209 )  ( + T8 154 ) ) ( <= ( + T8 229 )( + T6 137 ) ) )
(or ( <= ( + T6 291 )  ( + T8 229 ) ) ( <= ( + T8 256 )( + T6 209 ) ) )
(or ( <= ( + T6 327 )  ( + T8 256 ) ) ( <= ( + T8 301 )( + T6 291 ) ) )
(or ( <= ( + T6 353 )  ( + T8 301 ) ) ( <= ( + T8 332 )( + T6 327 ) ) )
(or ( <= ( + T7 86 ) T8 ) ( <= ( + T8 90 ) T7 ) )
(or ( <= ( + T7 97 )  ( + T8 90 ) ) ( <= ( + T8 154 )( + T7 86 ) ) )
(or ( <= ( + T7 163 )  ( + T8 154 ) ) ( <= ( + T8 229 )( + T7 97 ) ) )
(or ( <= ( + T7 190 )  ( + T8 229 ) ) ( <= ( + T8 256 )( + T7 163 ) ) )
(or ( <= ( + T7 252 )  ( + T8 256 ) ) ( <= ( + T8 301 )( + T7 190 ) ) )
(or ( <= ( + T7 315 )  ( + T8 301 ) ) ( <= ( + T8 332 )( + T7 252 ) ) )
( <= ( + T1 230 ) Z)
( <= ( + T2 464 ) Z)
( <= ( + T3 207 ) Z)
( <= ( + T4 252 ) Z)
( <= ( + T5 266 ) Z)
( <= ( + T6 353 ) Z)
( <= ( + T7 315 ) Z)
( <= ( + T8 332 ) Z)
( >= T1 0 )
( >= T2 0 )
( >= T3 0 )
( >= T4 0 )
( >= T5 0 )
( >= T6 0 )
( >= T7 0 )
( >= T8 0 )
) )
(minimize Z)
(check-sat)